NAME: Graph
TYPE: TSP
DIMENSION: 20
EDGE_WEIGHT_TYPE: EUC_2D
NODE_COORD_SECTION
1 1 6
2 1 67
3 2 96
4 5 25
5 12 38
6 32 1
7 42 37
8 46 34
9 46 88
10 50 19
11 51 53
12 61 54
13 67 11
14 77 89
15 79 22
16 80 70
17 90 40
18 94 49
19 94 55
20 98 77
EOF
